
Gurobi 8.1.1 (win64) logging started 11/24/19 13:08:30

Changed value of parameter LogFile to logs/miss/ip/miss-06-30-0.log
   Prev: gurobi.log  Default: 
Changed value of parameter LogToConsole to 0
   Prev: 1  Min: 0  Max: 1  Default: 1
Changed value of parameter TimeLimit to 3600.0
   Prev: 1e+100  Min: 0.0  Max: 1e+100  Default: 1e+100
Optimize a model with 918 rows, 425 columns and 3393 nonzeros
Variable types: 0 continuous, 425 integer (415 binary)
Coefficient statistics:
  Matrix range     [1e+00, 2e+02]
  Objective range  [1e+00, 1e+00]
  Bounds range     [1e+00, 1e+00]
  RHS range        [1e+00, 3e+02]
Presolve removed 3 rows and 3 columns
Presolve time: 0.02s
Presolved: 915 rows, 422 columns, 3384 nonzeros
Variable types: 0 continuous, 422 integer (412 binary)

Root relaxation: objective 4.000000e+00, 381 iterations, 0.01 seconds

    Nodes    |    Current Node    |     Objective Bounds      |     Work
 Expl Unexpl |  Obj  Depth IntInf | Incumbent    BestBd   Gap | It/Node Time

     0     0    4.00000    0   53          -    4.00000      -     -    0s
H    0     0                      10.0000000    4.00000  60.0%     -    0s
     0     0    5.00000    0   17   10.00000    5.00000  50.0%     -    0s
     0     0    5.00000    0   20   10.00000    5.00000  50.0%     -    0s
     0     0    5.00000    0   29   10.00000    5.00000  50.0%     -    0s
H    0     0                       9.0000000    5.00000  44.4%     -    0s
     0     0    5.00000    0    4    9.00000    5.00000  44.4%     -    0s
     0     0    5.00000    0    7    9.00000    5.00000  44.4%     -    0s
H    0     0                       8.0000000    5.00000  37.5%     -    0s
     0     0    5.00000    0   21    8.00000    5.00000  37.5%     -    0s
     0     0    5.00000    0    4    8.00000    5.00000  37.5%     -    0s
     0     0    5.00000    0   26    8.00000    5.00000  37.5%     -    0s
     0     0    5.00000    0   22    8.00000    5.00000  37.5%     -    0s
H    0     0                       7.0000000    5.00000  28.6%     -    0s
     0     0    5.00000    0   22    7.00000    5.00000  28.6%     -    0s
     0     0    5.00000    0    8    7.00000    5.00000  28.6%     -    0s
     0     0    5.00000    0   29    7.00000    5.00000  28.6%     -    0s
     0     0    5.00000    0   28    7.00000    5.00000  28.6%     -    0s
     0     0    5.00000    0   22    7.00000    5.00000  28.6%     -    0s
     0     0    5.00000    0    8    7.00000    5.00000  28.6%     -    0s
     0     0    5.00000    0    7    7.00000    5.00000  28.6%     -    0s
     0     0    5.00000    0    7    7.00000    5.00000  28.6%     -    0s
     0     0    5.00000    0    4    7.00000    5.00000  28.6%     -    0s
     0     0    5.00000    0    8    7.00000    5.00000  28.6%     -    0s
H    0     0                       6.0000000    5.00000  16.7%     -    0s
     0     0    5.00000    0    8    6.00000    5.00000  16.7%     -    0s
     0     0    5.00000    0    8    6.00000    5.00000  16.7%     -    0s
     0     0    5.00000    0    4    6.00000    5.00000  16.7%     -    0s
     0     0    5.00000    0   18    6.00000    5.00000  16.7%     -    0s
     0     0    5.00000    0   18    6.00000    5.00000  16.7%     -    0s
     0     0    5.00000    0    6    6.00000    5.00000  16.7%     -    0s
     0     0    5.00000    0   23    6.00000    5.00000  16.7%     -    0s
     0     0    5.00000    0   10    6.00000    5.00000  16.7%     -    0s
     0     0    5.00000    0   10    6.00000    5.00000  16.7%     -    0s
     0     0    5.00000    0    4    6.00000    5.00000  16.7%     -    0s
     0     0    5.00000    0    6    6.00000    5.00000  16.7%     -    0s
     0     0    5.00000    0    6    6.00000    5.00000  16.7%     -    0s
     0     2    5.00000    0    6    6.00000    5.00000  16.7%     -    0s

Cutting planes:
  Cover: 112
  MIR: 23
  Inf proof: 139
  Zero half: 2

Explored 5838 nodes (56819 simplex iterations) in 1.46 seconds
Thread count was 4 (of 4 available processors)

Solution count 5: 6 7 8 ... 10

Optimal solution found (tolerance 1.00e-04)
Best objective 6.000000000000e+00, best bound 6.000000000000e+00, gap 0.0000%
